language Essence 1.3

letting blksize_delta be
        function(1 --> 3, 2 --> 3, 3 --> 3, 4 --> 3, 5 --> 3, 6 --> 3, 7 --> 3, 8 --> 3, 9 --> 3, 10 --> 3, 11 --> 3,
                 12 --> 3, 13 --> 3, 14 --> 3, 15 --> 3, 16 --> 3, 17 --> 3, 18 --> 3, 19 --> 3, 20 --> 3, 21 --> 3,
                 22 --> 3, 23 --> 3, 24 --> 3, 25 --> 3, 26 --> 3, 27 --> 3, 28 --> 3, 29 --> 3, 30 --> 3, 31 --> 3,
                 32 --> 3, 33 --> 3, 34 --> 3, 35 --> 3, 36 --> 3, 37 --> 3, 38 --> 3, 39 --> 3, 40 --> 3, 41 --> 3,
                 42 --> 3, 43 --> 3, 44 --> 3, 45 --> 3, 46 --> 3, 47 --> 3, 48 --> 3, 49 --> 3, 50 --> 3, 51 --> 3,
                 52 --> 3, 53 --> 3, 54 --> 3, 55 --> 3, 56 --> 3, 57 --> 3, 58 --> 3, 59 --> 3, 60 --> 3, 61 --> 3,
                 62 --> 3, 63 --> 3, 64 --> 3, 65 --> 3, 66 --> 3, 67 --> 3, 68 --> 3, 69 --> 3, 70 --> 3, 71 --> 3,
                 72 --> 3, 73 --> 3, 74 --> 3, 75 --> 3, 76 --> 3, 77 --> 3, 78 --> 3, 79 --> 3, 80 --> 3, 81 --> 3,
                 82 --> 3, 83 --> 3, 84 --> 3, 85 --> 3, 86 --> 3, 87 --> 3, 88 --> 3, 89 --> 3, 90 --> 3, 91 --> 3,
                 92 --> 3, 93 --> 3, 94 --> 3, 95 --> 3, 96 --> 3, 97 --> 3, 98 --> 3, 99 --> 3, 100 --> 3, 101 --> 3,
                 102 --> 3, 103 --> 3, 104 --> 3, 105 --> 3, 106 --> 3, 107 --> 3, 108 --> 3, 109 --> 3, 110 --> 3,
                 111 --> 3, 112 --> 3, 113 --> 3, 114 --> 3, 115 --> 3, 116 --> 3, 117 --> 3, 118 --> 3, 119 --> 3,
                 120 --> 3, 121 --> 3, 122 --> 3, 123 --> 3, 124 --> 3, 125 --> 3, 126 --> 3, 127 --> 3, 128 --> 3,
                 129 --> 3, 130 --> 3, 131 --> 3, 132 --> 3, 133 --> 3, 134 --> 3, 135 --> 3, 136 --> 3, 137 --> 3,
                 138 --> 3, 139 --> 3, 140 --> 3, 141 --> 3, 142 --> 3, 143 --> 3, 144 --> 3, 145 --> 3, 146 --> 3,
                 147 --> 3, 148 --> 3, 149 --> 3, 150 --> 3, 151 --> 3, 152 --> 3, 153 --> 3, 154 --> 3, 155 --> 3,
                 156 --> 3, 157 --> 3, 158 --> 3)
letting maxcars be
        function(1 --> 10, 2 --> 10, 3 --> 10, 4 --> 10, 5 --> 10, 6 --> 10, 7 --> 10, 8 --> 8, 9 --> 10, 10 --> 10,
                 11 --> 10, 12 --> 10, 13 --> 10, 14 --> 10, 15 --> 10, 16 --> 10, 17 --> 6, 18 --> 10, 19 --> 10,
                 20 --> 10, 21 --> 10, 22 --> 10, 23 --> 10, 24 --> 10, 25 --> 10, 26 --> 10, 27 --> 7, 28 --> 10,
                 29 --> 6, 30 --> 10, 31 --> 10, 32 --> 10, 33 --> 10, 34 --> 10, 35 --> 9, 36 --> 6, 37 --> 8,
                 38 --> 7, 39 --> 10, 40 --> 10, 41 --> 10, 42 --> 10, 43 --> 10, 44 --> 10, 45 --> 10, 46 --> 10,
                 47 --> 10, 48 --> 10, 49 --> 10, 50 --> 8, 51 --> 10, 52 --> 10, 53 --> 10, 54 --> 10, 55 --> 10,
                 56 --> 10, 57 --> 10, 58 --> 10, 59 --> 10, 60 --> 7, 61 --> 10, 62 --> 10, 63 --> 10, 64 --> 10,
                 65 --> 10, 66 --> 10, 67 --> 10, 68 --> 10, 69 --> 10, 70 --> 10, 71 --> 10, 72 --> 7, 73 --> 10,
                 74 --> 10, 75 --> 8, 76 --> 10, 77 --> 10, 78 --> 10, 79 --> 6, 80 --> 10, 81 --> 7, 82 --> 10,
                 83 --> 9, 84 --> 10, 85 --> 10, 86 --> 10, 87 --> 10, 88 --> 10, 89 --> 10, 90 --> 10, 91 --> 10,
                 92 --> 10, 93 --> 10, 94 --> 10, 95 --> 8, 96 --> 10, 97 --> 10, 98 --> 10, 99 --> 10, 100 --> 10,
                 101 --> 10, 102 --> 9, 103 --> 10, 104 --> 8, 105 --> 10, 106 --> 10, 107 --> 10, 108 --> 10,
                 109 --> 10, 110 --> 10, 111 --> 10, 112 --> 7, 113 --> 10, 114 --> 10, 115 --> 10, 116 --> 10,
                 117 --> 10, 118 --> 10, 119 --> 10, 120 --> 10, 121 --> 10, 122 --> 10, 123 --> 10, 124 --> 10,
                 125 --> 10, 126 --> 10, 127 --> 10, 128 --> 10, 129 --> 10, 130 --> 10, 131 --> 10, 132 --> 10,
                 133 --> 10, 134 --> 10, 135 --> 10, 136 --> 10, 137 --> 10, 138 --> 10, 139 --> 10, 140 --> 10,
                 141 --> 10, 142 --> 10, 143 --> 10, 144 --> 10, 145 --> 10, 146 --> 10, 147 --> 8, 148 --> 10,
                 149 --> 6, 150 --> 10, 151 --> 10, 152 --> 10, 153 --> 10, 154 --> 10, 155 --> 10, 156 --> 7,
                 157 --> 10, 158 --> 9)
letting n_cars be 108
letting n_classes be 2
letting n_options be 158
letting quantity be function(1 --> 57, 2 --> 51)
letting usage be
        relation((1, 1), (1, 2), (1, 3), (1, 4), (1, 5), (1, 6), (1, 7), (1, 8), (1, 9), (1, 10), (1, 11), (1, 12),
                 (1, 13), (1, 14), (1, 15), (1, 16), (1, 17), (1, 18), (1, 19), (1, 20), (1, 21), (1, 22), (1, 23),
                 (1, 24), (1, 26), (1, 27), (1, 28), (1, 29), (1, 30), (1, 32), (1, 33), (1, 34), (1, 35), (1, 37),
                 (1, 38), (1, 39), (1, 40), (1, 41), (1, 42), (1, 43), (1, 44), (1, 45), (1, 46), (1, 47), (1, 48),
                 (1, 49), (1, 50), (1, 51), (1, 52), (1, 53), (1, 54), (1, 55), (1, 56), (1, 57), (1, 58), (1, 59),
                 (1, 60), (1, 61), (1, 64), (1, 65), (1, 66), (1, 67), (1, 68), (1, 69), (1, 70), (1, 71), (1, 72),
                 (1, 73), (1, 74), (1, 75), (1, 76), (1, 77), (1, 78), (1, 79), (1, 80), (1, 81), (1, 82), (1, 83),
                 (1, 84), (1, 85), (1, 86), (1, 87), (1, 88), (1, 89), (1, 90), (1, 91), (1, 92), (1, 93), (1, 94),
                 (1, 96), (1, 97), (1, 98), (1, 99), (1, 100), (1, 101), (1, 102), (1, 103), (1, 104), (1, 105),
                 (1, 106), (1, 107), (1, 108), (1, 109), (1, 110), (1, 111), (1, 112), (1, 113), (1, 114), (1, 115),
                 (1, 116), (1, 117), (1, 118), (1, 119), (1, 120), (1, 121), (1, 122), (1, 124), (1, 125), (1, 126),
                 (1, 127), (1, 128), (1, 129), (1, 130), (1, 131), (1, 132), (1, 133), (1, 134), (1, 135), (1, 136),
                 (1, 137), (1, 138), (1, 139), (1, 140), (1, 141), (1, 142), (1, 143), (1, 144), (1, 145), (1, 146),
                 (1, 147), (1, 148), (1, 149), (1, 150), (1, 151), (1, 152), (1, 153), (1, 154), (1, 155), (1, 156),
                 (1, 157), (2, 25), (2, 31), (2, 36), (2, 62), (2, 63), (2, 95), (2, 123), (2, 158))
$ Visualisation for usage
$   1   1
$   1   2
$   1   3
$   1   4
$   1   5
$   1   6
$   1   7
$   1   8
$   1   9
$   1  10
$   1  11
$   1  12
$   1  13
$   1  14
$   1  15
$   1  16
$   1  17
$   1  18
$   1  19
$   1  20
$   1  21
$   1  22
$   1  23
$   1  24
$   1  26
$   1  27
$   1  28
$   1  29
$   1  30
$   1  32
$   1  33
$   1  34
$   1  35
$   1  37
$   1  38
$   1  39
$   1  40
$   1  41
$   1  42
$   1  43
$   1  44
$   1  45
$   1  46
$   1  47
$   1  48
$   1  49
$   1  50
$   1  51
$   1  52
$   1  53
$   1  54
$   1  55
$   1  56
$   1  57
$   1  58
$   1  59
$   1  60
$   1  61
$   1  64
$   1  65
$   1  66
$   1  67
$   1  68
$   1  69
$   1  70
$   1  71
$   1  72
$   1  73
$   1  74
$   1  75
$   1  76
$   1  77
$   1  78
$   1  79
$   1  80
$   1  81
$   1  82
$   1  83
$   1  84
$   1  85
$   1  86
$   1  87
$   1  88
$   1  89
$   1  90
$   1  91
$   1  92
$   1  93
$   1  94
$   1  96
$   1  97
$   1  98
$   1  99
$   1 100
$   1 101
$   1 102
$   1 103
$   1 104
$   1 105
$   1 106
$   1 107
$   1 108
$   1 109
$   1 110
$   1 111
$   1 112
$   1 113
$   1 114
$   1 115
$   1 116
$   1 117
$   1 118
$   1 119
$   1 120
$   1 121
$   1 122
$   1 124
$   1 125
$   1 126
$   1 127
$   1 128
$   1 129
$   1 130
$   1 131
$   1 132
$   1 133
$   1 134
$   1 135
$   1 136
$   1 137
$   1 138
$   1 139
$   1 140
$   1 141
$   1 142
$   1 143
$   1 144
$   1 145
$   1 146
$   1 147
$   1 148
$   1 149
$   1 150
$   1 151
$   1 152
$   1 153
$   1 154
$   1 155
$   1 156
$   1 157
$   2  25
$   2  31
$   2  36
$   2  62
$   2  63
$   2  95
$   2 123
$   2 158

